analyze/results_flowersnark/final_miplib_symretope_if_extended_generating_set_cpx_v802__settings_final_nosym_norestarts__0__neos-1109824.mps.gz.sol
solution status: optimal solution found
objective value:                                  378
C0004                                               1 	(obj:28)
C0048                                               1 	(obj:3)
C0070                                               1 	(obj:43)
C0084                                               1 	(obj:9)
C0118                                               1 	(obj:25)
C0148                                               1 	(obj:3)
C0160                                               1 	(obj:0)
C0178                                               1 	(obj:22)
C0191                                               1 	(obj:22)
C0250                                               1 	(obj:5)
C0295                                               1 	(obj:30)
C0394                                               1 	(obj:5)
C0663                                               1 	(obj:13)
C0722                                               1 	(obj:5)
C0742                                               1 	(obj:17)
C0765                                               1 	(obj:19)
C0866                                               1 	(obj:30)
C0985                                               1 	(obj:6)
C1065                                               1 	(obj:33)
C1141                                               1 	(obj:23)
C1177                                               1 	(obj:10)
C1369                                               1 	(obj:17)
C1495                                               1 	(obj:10)
