analyze/results_flowersnark/final_miplib_symretope_if_extended_generating_set_cpx_v802__settings_final_nosym_norestarts__0__neos-1109824.mps.gz.out
FILENAME:   /home/mcs001/s132664/testsets/IP/miplib2010/neos-1109824.mps.gz
SETTINGS:   settings_final_nosym_norestarts
TIMELIMIT:  7200
OUTPUTNAME: final_miplib_symretope_if_extended_generating_set_cpx_v802__settings_final_nosym_norestarts__0__
BINNAME:    bin/sbcs.linux.x86_64.gnu.opt.cpx
BASENAME:   neos-1109824.mps.gz
SEED:       0
@01 /home/mcs001/s132664/testsets/IP/miplib2010/neos-1109824.mps.gz ===========
@02 neos-1109824.mps.gz
@03 1686649151
SCIP version 8.0.2 [precision: 8 byte] [memory: block] [mode: optimized] [LP solver: CPLEX 20.1.0.0] [GitHash: 5f0473c]
Copyright (C) 2002-2022 Konrad-Zuse-Zentrum fuer Informationstechnik Berlin (ZIB)

Symretope propagation methods - (c) Jasper van Doornmalen, Christopher Hojny.
[GitHash: 2fd0484]

reading parameter file <../settings/settings_final_nosym_norestarts.set> ...

Changed settings:
limits/time = 7200
limits/restarts = 0
misc/usesymmetry = 0
constraints/orbisack/sepafreq = -1
constraints/symresack/sepafreq = -1
propagating/symmetry/detectsubgroups = FALSE
propagating/symmetry/usesymretopes = FALSE
propagating/symmetry/relabelsymretopes = 0
propagating/symmetry/ofsymcomptiming = 0
constraints/symretope/sepafreq = -1
constraints/symretope/peek = FALSE


solving problem ...

original problem has 1520 variables (1520 bin, 0 int, 0 impl, 0 cont) and 28979 constraints
presolving:
(round 1, exhaustive) 0 del vars, 19000 del conss, 0 add conss, 0 chg bounds, 0 chg sides, 0 chg coeffs, 0 upgd conss, 0 impls, 783 clqs
(round 2, exhaustive) 0 del vars, 19000 del conss, 0 add conss, 0 chg bounds, 0 chg sides, 0 chg coeffs, 9903 upgd conss, 0 impls, 783 clqs
   (0.6s) probing: 1000/1520 (65.8%) - 0 fixings, 0 aggregations, 51824 implications, 0 bound changes
   (0.6s) probing: 1001/1520 (65.9%) - 0 fixings, 0 aggregations, 51879 implications, 0 bound changes
   (0.6s) probing aborted: 1000/1000 successive useless probings
presolving (3 rounds: 3 fast, 3 medium, 3 exhaustive):
 0 deleted vars, 19000 deleted constraints, 0 added constraints, 0 tightened bounds, 0 added holes, 0 changed sides, 0 changed coefficients
 0 implications, 52662 cliques
presolved problem has 1520 variables (1520 bin, 0 int, 0 impl, 0 cont) and 9979 constraints
    783 constraints of type <setppc>
     76 constraints of type <linear>
   9120 constraints of type <logicor>
transformed objective value is always integral (scale: 1)
Presolving Time: 0.56

 time | node  | left  |LP iter|LP it/n|mem/heur|mdpt |vars |cons |rows |cuts |sepa|confs|strbr|  dualbound   | primalbound  |  gap   | compl. 
  0.7s|     1 |     0 |    38 |     - |    69M |   0 |1520 |  10k|9979 |   0 |  0 |  31 |   0 | 2.780000e+02 |      --      |    Inf | unknown
  0.9s|     1 |     0 |   502 |     - |    70M |   0 |1520 |  10k|  10k|  29 |  1 |  31 |   0 | 2.780000e+02 |      --      |    Inf | unknown
  1.0s|     1 |     0 |   571 |     - |    71M |   0 |1520 |  10k|  10k|  55 |  2 |  31 |   0 | 3.332857e+02 |      --      |    Inf | unknown
  1.2s|     1 |     0 |   601 |     - |    73M |   0 |1520 |  10k|  10k|  73 |  3 |  31 |   0 | 3.452500e+02 |      --      |    Inf | unknown
  1.5s|     1 |     0 |   639 |     - |    75M |   0 |1520 |  10k|  10k|  86 |  4 |  31 |   0 | 3.455000e+02 |      --      |    Inf | unknown
  1.7s|     1 |     0 |   668 |     - |    77M |   0 |1520 |  10k|  10k| 100 |  5 |  31 |   0 | 3.460000e+02 |      --      |    Inf | unknown
  1.8s|     1 |     0 |   692 |     - |    79M |   0 |1520 |9999 |  10k| 110 |  6 |  31 |   0 | 3.460000e+02 |      --      |    Inf | unknown
  1.9s|     1 |     0 |   718 |     - |    80M |   0 |1520 |9998 |  10k| 121 |  7 |  31 |   0 | 3.460000e+02 |      --      |    Inf | unknown
  2.0s|     1 |     0 |   729 |     - |    81M |   0 |1520 |9998 |  10k| 128 |  8 |  31 |   0 | 3.460000e+02 |      --      |    Inf | unknown
  2.1s|     1 |     0 |   749 |     - |    83M |   0 |1520 |9998 |  10k| 135 |  9 |  31 |   0 | 3.460000e+02 |      --      |    Inf | unknown
  2.2s|     1 |     0 |   768 |     - |    84M |   0 |1520 |9997 |  10k| 141 | 10 |  31 |   0 | 3.460000e+02 |      --      |    Inf | unknown
  2.2s|     1 |     0 |   775 |     - |    85M |   0 |1520 |9996 |  10k| 146 | 11 |  31 |   0 | 3.460000e+02 |      --      |    Inf | unknown
  2.3s|     1 |     0 |   802 |     - |    86M |   0 |1520 |9996 |  10k| 150 | 12 |  31 |   0 | 3.472500e+02 |      --      |    Inf | unknown
  2.3s|     1 |     0 |   815 |     - |    88M |   0 |1520 |9995 |  10k| 156 | 13 |  31 |   0 | 3.478750e+02 |      --      |    Inf | unknown
  2.3s|     1 |     0 |   827 |     - |    89M |   0 |1520 |9995 |  10k| 160 | 14 |  31 |   0 | 3.497500e+02 |      --      |    Inf | unknown
 time | node  | left  |LP iter|LP it/n|mem/heur|mdpt |vars |cons |rows |cuts |sepa|confs|strbr|  dualbound   | primalbound  |  gap   | compl. 
  2.3s|     1 |     0 |   856 |     - |    90M |   0 |1520 |9995 |  10k| 165 | 15 |  31 |   0 | 3.517500e+02 |      --      |    Inf | unknown
  2.4s|     1 |     0 |   886 |     - |    91M |   0 |1520 |9995 |  10k| 168 | 16 |  31 |   0 | 3.537812e+02 |      --      |    Inf | unknown
  2.4s|     1 |     0 |   902 |     - |    92M |   0 |1520 |9995 |  10k| 176 | 17 |  31 |   0 | 3.542500e+02 |      --      |    Inf | unknown
  2.4s|     1 |     0 |   911 |     - |    93M |   0 |1520 |9995 |  10k| 181 | 18 |  31 |   0 | 3.542500e+02 |      --      |    Inf | unknown
  2.4s|     1 |     0 |   915 |     - |    94M |   0 |1520 |9995 |  10k| 183 | 19 |  31 |   0 | 3.542500e+02 |      --      |    Inf | unknown
  2.5s|     1 |     0 |   917 |     - |    95M |   0 |1520 |9995 |  10k| 184 | 20 |  31 |   0 | 3.542500e+02 |      --      |    Inf | unknown
  2.5s|     1 |     0 |   926 |     - |    95M |   0 |1520 |9995 |  10k| 186 | 21 |  31 |   0 | 3.542500e+02 |      --      |    Inf | unknown
  3.5s|     1 |     2 |  2473 |     - |    97M |   0 |1520 |  10k|  10k| 186 | 23 |  49 |  18 | 3.547143e+02 |      --      |    Inf | unknown
d 4.0s|     6 |     7 |  2700 | 355.0 |pscostdi|   5 |1520 |  10k|  10k|   0 |  1 |  49 |  82 | 3.547143e+02 | 4.660000e+02 |  31.37%| unknown
* 4.3s|     9 |     3 |  2768 | 230.4 |strongbr|   5 |1520 |  10k|  10k| 186 |  1 |  49 | 119 | 3.547143e+02 | 3.780000e+02 |   6.56%|   9.17%
 14.1s|   100 |    14 |  5304 |  44.2 |   123M |  15 |1520 |8799 |  10k| 272 |  2 |1261 |1083 | 3.640000e+02 | 3.780000e+02 |   3.85%|  45.18%
 20.4s|   200 |    22 |  7294 |  32.0 |   126M |  22 |1520 |9206 |  10k| 316 |  5 |1870 |1531 | 3.640000e+02 | 3.780000e+02 |   3.85%|  45.24%
 26.3s|   300 |    26 |  9130 |  27.4 |   132M |  22 |1520 |9264 |  10k| 441 |  1 |2508 |1816 | 3.640000e+02 | 3.780000e+02 |   3.85%|  47.97%
 29.0s|   400 |    36 | 10690 |  24.5 |   133M |  25 |1520 |9363 |  10k| 466 |  4 |2914 |1980 | 3.640000e+02 | 3.780000e+02 |   3.85%|  47.98%
 30.8s|   500 |    41 | 11798 |  21.8 |   133M |  36 |1520 |9382 |  10k| 483 |  0 |3147 |2090 | 3.640000e+02 | 3.780000e+02 |   3.85%|  47.98%
 time | node  | left  |LP iter|LP it/n|mem/heur|mdpt |vars |cons |rows |cuts |sepa|confs|strbr|  dualbound   | primalbound  |  gap   | compl. 
 32.6s|   600 |    49 | 13114 |  20.3 |   133M |  36 |1520 |9450 |  10k| 524 |  1 |3379 |2166 | 3.640000e+02 | 3.780000e+02 |   3.85%|  47.99%
 34.6s|   700 |    51 | 14146 |  18.9 |   134M |  36 |1520 |9419 |  10k| 556 |  3 |3644 |2260 | 3.642500e+02 | 3.780000e+02 |   3.77%|  48.46%
 36.3s|   800 |    61 | 15183 |  17.8 |   134M |  36 |1520 |9566 |  10k| 562 |  2 |3983 |2344 | 3.642500e+02 | 3.780000e+02 |   3.77%|  48.46%
 37.7s|   900 |    65 | 16201 |  17.0 |   134M |  36 |1520 |9643 |  10k| 572 |  4 |4183 |2403 | 3.645000e+02 | 3.780000e+02 |   3.70%|  48.85%
 38.9s|  1000 |    71 | 17362 |  16.5 |   134M |  36 |1520 |9642 |  10k| 579 |  1 |4360 |2437 | 3.647778e+02 | 3.780000e+02 |   3.62%|  49.29%
 40.9s|  1100 |    77 | 18778 |  16.2 |   134M |  36 |1520 |9731 |   0 | 606 |  0 |4679 |2508 | 3.655000e+02 | 3.780000e+02 |   3.42%|  58.41%
 42.6s|  1200 |    81 | 20004 |  15.9 |   135M |  36 |1520 |9724 |  10k| 611 |  1 |5039 |2566 | 3.655000e+02 | 3.780000e+02 |   3.42%|  58.43%
 44.2s|  1300 |    97 | 21704 |  16.0 |   135M |  36 |1520 |9758 |  10k| 611 |  2 |5334 |2608 | 3.658750e+02 | 3.780000e+02 |   3.31%|  59.02%
 46.3s|  1400 |   107 | 23050 |  15.8 |   135M |  40 |1520 |9887 |  10k| 624 |  0 |5651 |2686 | 3.658750e+02 | 3.780000e+02 |   3.31%|  59.02%
 47.9s|  1500 |   127 | 24383 |  15.6 |   137M |  40 |1520 |9630 |  10k| 646 |  2 |5889 |2738 | 3.660000e+02 | 3.780000e+02 |   3.28%|  59.22%
 49.6s|  1600 |   141 | 25402 |  15.3 |   137M |  40 |1520 |9633 |  10k| 658 |  2 |6228 |2790 | 3.660000e+02 | 3.780000e+02 |   3.28%|  59.22%
 51.7s|  1700 |   145 | 26550 |  15.1 |   137M |  43 |1520 |  10k|  10k| 673 |  1 |6791 |2869 | 3.660000e+02 | 3.780000e+02 |   3.28%|  59.22%
 53.3s|  1800 |   147 | 27593 |  14.8 |   137M |  43 |1520 |9865 |  10k| 679 |  0 |7068 |2931 | 3.661667e+02 | 3.780000e+02 |   3.23%|  66.93%
 54.7s|  1900 |   150 | 28575 |  14.6 |   137M |  43 |1520 |9661 |  10k| 683 |  2 |7310 |2982 | 3.666667e+02 | 3.780000e+02 |   3.09%|  67.72%
 56.2s|  2000 |   144 | 29742 |  14.4 |   138M |  43 |1520 |9549 |  10k| 690 |  4 |7490 |3031 | 3.670882e+02 | 3.780000e+02 |   2.97%|  68.98%
 time | node  | left  |LP iter|LP it/n|mem/heur|mdpt |vars |cons |rows |cuts |sepa|confs|strbr|  dualbound   | primalbound  |  gap   | compl. 
 58.2s|  2100 |   148 | 30894 |  14.3 |   138M |  43 |1520 |9620 |  10k| 698 |  2 |7799 |3116 | 3.674667e+02 | 3.780000e+02 |   2.87%|  70.38%
 59.8s|  2200 |   154 | 31853 |  14.1 |   138M |  43 |1520 |9561 |  10k| 723 |  1 |7924 |3153 | 3.678500e+02 | 3.780000e+02 |   2.76%|  71.04%
 61.0s|  2300 |   156 | 32725 |  13.8 |   138M |  43 |1520 |9583 |  10k| 733 |  1 |8091 |3194 | 3.679000e+02 | 3.780000e+02 |   2.75%|  71.12%
 62.5s|  2400 |   150 | 33573 |  13.6 |   138M |  43 |1520 |9574 |  10k| 746 |  0 |8287 |3240 | 3.680000e+02 | 3.780000e+02 |   2.72%|  71.42%
 65.0s|  2500 |   133 | 34849 |  13.6 |   139M |  43 |1520 |9426 |  10k| 796 |  2 |8486 |3278 | 3.680000e+02 | 3.780000e+02 |   2.72%|  72.75%
 66.3s|  2600 |   121 | 35938 |  13.5 |   139M |  43 |1520 |9425 |  10k| 813 |  2 |8666 |3302 | 3.681250e+02 | 3.780000e+02 |   2.68%|  72.95%
 67.7s|  2700 |   117 | 36930 |  13.3 |   139M |  43 |1520 |9618 |  10k| 823 |  1 |8990 |3342 | 3.681250e+02 | 3.780000e+02 |   2.68%|  72.95%
 68.7s|  2800 |   101 | 37658 |  13.1 |   139M |  43 |1520 |9568 |  10k| 825 |  2 |9088 |3358 | 3.681250e+02 | 3.780000e+02 |   2.68%|  78.81%
 69.8s|  2900 |    97 | 38426 |  12.9 |   139M |  43 |1520 |9545 |  10k| 830 |  0 |9217 |3388 | 3.684667e+02 | 3.780000e+02 |   2.59%|  79.35%
 70.8s|  3000 |    79 | 39173 |  12.8 |   140M |  43 |1520 |9533 |  10k| 835 |  0 |9345 |3402 | 3.700000e+02 | 3.780000e+02 |   2.16%|  81.77%
 71.9s|  3100 |    58 | 39812 |  12.5 |   140M |  43 |1520 |9604 |  10k| 835 |  4 |9527 |3425 | 3.710000e+02 | 3.780000e+02 |   1.89%|  83.34%
 73.2s|  3200 |    48 | 40676 |  12.4 |   140M |  43 |1520 |9615 |  10k| 852 |  2 |9661 |3451 | 3.715000e+02 | 3.780000e+02 |   1.75%|  84.13%
 73.9s|  3300 |    45 | 41097 |  12.2 |   140M |  43 |1520 |9542 |  10k| 857 |  2 |9715 |3455 | 3.717500e+02 | 3.780000e+02 |   1.68%|  87.74%
 74.9s|  3400 |    32 | 41811 |  12.0 |   140M |  43 |1520 |9529 |  10k| 867 |  1 |9807 |3468 | 3.721667e+02 | 3.780000e+02 |   1.57%|  88.41%
 75.9s|  3500 |    19 | 42584 |  11.9 |   140M |  43 |1520 |9542 |  10k| 869 |  0 |9943 |3490 | 3.735000e+02 | 3.780000e+02 |   1.20%|  92.89%
 time | node  | left  |LP iter|LP it/n|mem/heur|mdpt |vars |cons |rows |cuts |sepa|confs|strbr|  dualbound   | primalbound  |  gap   | compl. 
 76.8s|  3600 |    11 | 43175 |  11.7 |   140M |  43 |1520 |9510 |  10k| 869 |  1 |  10k|3497 | 3.740000e+02 | 3.780000e+02 |   1.07%|  93.67%

SCIP Status        : problem is solved [optimal solution found]
Solving Time (sec) : 77.22
Solving Nodes      : 3652
Primal Bound       : +3.78000000000000e+02 (4 solutions)
Dual Bound         : +3.78000000000000e+02
Gap                : 0.00 %
SCIP Status        : problem is solved [optimal solution found]
Total Time         :      77.30
  solving          :      77.22
  presolving       :       0.56 (included in solving)
  reading          :       0.08
  copying          :       0.35 (17 #copies) (minimal 0.01, maximal 0.03, average 0.02)
Original Problem   :
  Problem name     : neos-1109824
  Variables        : 1520 (1520 binary, 0 integer, 0 implicit integer, 0 continuous)
  Constraints      : 28979 initial, 28979 maximal
  Objective        : minimize, 1512 non-zeros (abs.min = 3, abs.max = 83)
Presolved Problem  :
  Problem name     : t_neos-1109824
  Variables        : 1520 (1520 binary, 0 integer, 0 implicit integer, 0 continuous)
  Constraints      : 9979 initial, 10038 maximal
  Objective        : minimize, 1512 non-zeros (abs.min = 3, abs.max = 83)
  Nonzeros         : 33288 constraint, 41563 clique table
Presolvers         :   ExecTime  SetupTime  Calls  FixedVars   AggrVars   ChgTypes  ChgBounds   AddHoles    DelCons    AddCons   ChgSides   ChgCoefs
  boundshift       :       0.00       0.00      0          0          0          0          0          0          0          0          0          0
  convertinttobin  :       0.00       0.00      0          0          0          0          0          0          0          0          0          0
  domcol           :       0.00       0.00      1          0          0          0          0          0          0          0          0          0
  dualagg          :       0.00       0.00      0          0          0          0          0          0          0          0          0          0
  dualcomp         :       0.00       0.00      0          0          0          0          0          0          0          0          0          0
  dualinfer        :       0.00       0.00      0          0          0          0          0          0          0          0          0          0
  dualsparsify     :       0.01       0.00      1          0          0          0          0          0          0          0          0          0
  gateextraction   :       0.01       0.00      1          0          0          0          0          0          0          0          0          0
  implics          :       0.00       0.00      3          0          0          0          0          0          0          0          0          0
  inttobinary      :       0.00       0.00      0          0          0          0          0          0          0          0          0          0
  qpkktref         :       0.00       0.00      0          0          0          0          0          0          0          0          0          0
  redvub           :       0.00       0.00      0          0          0          0          0          0          0          0          0          0
  sparsify         :       0.03       0.00      1          0          0          0          0          0          0          0          0          0
  stuffing         :       0.00       0.00      0          0          0          0          0          0          0          0          0          0
  trivial          :       0.00       0.00      3          0          0          0          0          0          0          0          0          0
  tworowbnd        :       0.00       0.00      0          0          0          0          0          0          0          0          0          0
  dualfix          :       0.00       0.00      3          0          0          0          0          0          0          0          0          0
  genvbounds       :       0.00       0.00      0          0          0          0          0          0          0          0          0          0
  probing          :       0.43       0.00      1          0          0          0          0          0          0          0          0          0
  pseudoobj        :       0.00       0.00      0          0          0          0          0          0          0          0          0          0
  symmetry         :       0.00       0.00      0          0          0          0          0          0          0          0          0          0
  vbounds          :       0.00       0.00      1          0          0          0          0          0          0          0          0          0
  knapsack         :       0.00       0.00      0          0          0          0          0          0          0          0          0          0
  setppc           :       0.00       0.00      3          0          0          0          0          0          0          0          0          0
  linear           :       0.05       0.01      6          0          0          0          0          0      19000          0          0          0
  logicor          :       0.01       0.00      3          0          0          0          0          0          0          0          0          0
  benders          :       0.00       0.00      0          0          0          0          0          0          0          0          0          0
  components       :       0.00       0.00      1          0          0          0          0          0          0          0          0          0
  root node        :          -          -      -        609          -          -        609          -          -          -          -          -
Constraints        :     Number  MaxNumber  #Separate #Propagate    #EnfoLP    #EnfoRelax  #EnfoPS    #Check   #ResProp    Cutoffs    DomReds       Cuts    Applied      Conss   Children
  benderslp        :          0          0          0          0       3124          0          0        314          0          0          0          0          0          0          0
  integral         :          0          0          0          0       3124          0          0        314          0          1       2808          0          0       6967       3666
  knapsack         :          0+        14          0      27376          0          0          0          0       2230         17       2854          0          0          0          0
  setppc           :        783+       930         22      33962          0          0          0        309      94073        133      38259          0          0          0          0
  linear           :         76+        79         22      33829          0          0          0         11      44119        337      37112          0          0          0          0
  logicor          :       9120+      9166         22      19476          0          0          0          9       9046        361       7609          1          1          0          0
  benders          :          0          0          0          0          0          0          0          8          0          0          0          0          0          0          0
  countsols        :          0          0          0          0          0          0          0          8          0          0          0          0          0          0          0
  components       :          0          0          0          0          0          0          0          0          0          0          0          0          0          0          0
Constraint Timings :  TotalTime  SetupTime   Separate  Propagate     EnfoLP     EnfoPS     EnfoRelax   Check    ResProp    SB-Prop
  benderslp        :       0.00       0.00       0.00       0.00       0.00       0.00       0.00       0.00       0.00       0.00
  integral         :      27.82       0.00       0.00       0.00      27.82       0.00       0.00       0.00       0.00       0.00
  knapsack         :       0.08       0.00       0.00       0.04       0.00       0.00       0.00       0.00       0.01       0.02
  setppc           :       0.43       0.00       0.00       0.20       0.00       0.00       0.00       0.00       0.03       0.19
  linear           :       0.71       0.01       0.03       0.37       0.00       0.00       0.00       0.00       0.10       0.20
  logicor          :       1.06       0.00       0.03       0.76       0.00       0.00       0.00       0.01       0.03       0.23
  benders          :       0.00       0.00       0.00       0.00       0.00       0.00       0.00       0.00       0.00       0.00
  countsols        :       0.00       0.00       0.00       0.00       0.00       0.00       0.00       0.00       0.00       0.00
  components       :       0.00       0.00       0.00       0.00       0.00       0.00       0.00       0.00       0.00       0.00
Propagators        : #Propagate   #ResProp    Cutoffs    DomReds
  dualfix          :          1          0          0          0
  genvbounds       :          0          0          0          0
  nlobbt           :          0          0          0          0
  obbt             :          0          0          0          0
  probing          :          0          0          0          0
  pseudoobj        :      20130          0          0          0
  redcost          :      10719          0          0      72636
  rootredcost      :          3          0          0        600
  symmetry         :          0          0          0          0
  vbounds          :      12362          0          0          0
Propagator Timings :  TotalTime  SetupTime   Presolve  Propagate    ResProp    SB-Prop
  dualfix          :       0.00       0.00       0.00       0.00       0.00       0.00
  genvbounds       :       0.01       0.00       0.00       0.01       0.00       0.00
  nlobbt           :       0.00       0.00       0.00       0.00       0.00       0.00
  obbt             :       0.00       0.00       0.00       0.00       0.00       0.00
  probing          :       0.43       0.00       0.43       0.00       0.00       0.00
  pseudoobj        :       0.04       0.00       0.00       0.04       0.00       0.00
  redcost          :       0.49       0.00       0.00       0.49       0.00       0.00
  rootredcost      :       0.01       0.00       0.00       0.01       0.00       0.00
  symmetry         :       0.00       0.00       0.00       0.00       0.00       0.00
  vbounds          :       0.04       0.00       0.00       0.03       0.00       0.00
Conflict Analysis  :       Time      Calls    Success    DomReds  Conflicts   Literals    Reconvs ReconvLits   Dualrays   Nonzeros   LP Iters   (pool size: [10000,10000])
  propagation      :       0.13        726        717          -       3585      148.4        152       33.5          -          -          -
  infeasible LP    :       0.03         41         30          -        114       96.4          7       66.1         28      102.8          0
  bound exceed. LP :       9.21       1937       1675          -      10355      113.2         94       27.1          0        0.0      20495
  strong branching :       0.00          0          0          -          0        0.0          0        0.0          -          -          0
  pseudo solution  :       0.00          0          0          -          0        0.0          0        0.0          -          -          -
  applied globally :       1.33          -          -          0       9993       59.1          -          -         25          -          -
  applied locally  :          -          -          -          0         25      272.2          -          -          3          -          -
Separators         :   ExecTime  SetupTime      Calls  RootCalls    Cutoffs    DomReds  FoundCuts ViaPoolAdd  DirectAdd    Applied ViaPoolApp  DirectApp      Conss
  cut pool         :       0.35          -        903         42          -          -       3588       3178          -          -          -          -          -    (maximal pool size:       1613)
  aggregation      :       0.32       0.00        203         22          0          0          0          0          0          0          0          0          0
  > cmir           :          -          -          -          -          -          -          -          0          0          0          0          0          -
  > flowcover      :          -          -          -          -          -          -          -          0          0          0          0          0          -
  > knapsackcover  :          -          -          -          -          -          -          -          0          0          0          0          0          -
  cgmip            :       0.00       0.00          0          0          0          0          0          0          0          0          0          0          0
  clique           :       0.05       0.00         22         22          0          0         60         60          0         45         45          0          0
  closecuts        :       0.00       0.00          0          0          0          0          0          0          0          0          0          0          0
  convexproj       :       0.00       0.00          0          0          0          0          0          0          0          0          0          0          0
  disjunctive      :       0.00       0.00          0          0          0          0          0          0          0          0          0          0          0
  eccuts           :       0.00       0.00          0          0          0          0          0          0          0          0          0          0          0
  gauge            :       0.00       0.00          0          0          0          0          0          0          0          0          0          0          0
  gomory           :       6.78       0.00        138         10          0          0       3272       2557         52        488        487          1          0
  > gomorymi       :          -          -          -          -          -          -          -        684         26         67         66          1          -
  > strongcg       :          -          -          -          -          -          -          -       1873         26        421        421          0          -
  impliedbounds    :       0.29       0.00        203         22          0          0          0          0          0          0          0          0          0
  interminor       :       0.00       0.00          0          0          0          0          0          0          0          0          0          0          0
  intobj           :       0.00       0.00          0          0          0          0          0          0          0          0          0          0          0
  mcf              :       0.00       0.00          1          1          0          0          0          0          0          0          0          0          0
  minor            :       0.00       0.00          0          0          0          0          0          0          0          0          0          0          0
  mixing           :       0.00       0.00          0          0          0          0          0          0          0          0          0          0          0
  oddcycle         :       0.00       0.00          0          0          0          0          0          0          0          0          0          0          0
  rapidlearning    :       0.14       0.00          1          1          0          0          0          0          0          0          0          0          0
  rlt              :       0.00       0.00         10         10          0          0          0          0          0          0          0          0          0
  zerohalf         :       0.23       0.00        148         20          0          0        329        561         21        335        318         17          0
Cutselectors       :   ExecTime  SetupTime      Calls  RootCalls   Selected     Forced   Filtered  RootSelec   RootForc   RootFilt 
  hybrid           :       0.01       0.00        327         21        869          0       2383        186          0        390
Pricers            :   ExecTime  SetupTime      Calls       Vars
  problem variables:       0.00          -          0          0
Branching Rules    :   ExecTime  SetupTime   BranchLP  BranchExt   BranchPS    Cutoffs    DomReds       Cuts      Conss   Children
  allfullstrong    :       0.00       0.00          0          0          0          0          0          0          0          0
  cloud            :       0.00       0.00          0          0          0          0          0          0          0          0
  distribution     :       0.00       0.00          0          0          0          0          0          0          0          0
  fullstrong       :       0.00       0.00          0          0          0          0          0          0          0          0
  inference        :       0.00       0.00          0          0          0          0          0          0          0          0
  leastinf         :       0.00       0.00          0          0          0          0          0          0          0          0
  lookahead        :       0.00       0.00          0          0          0          0          0          0          0          0
  mostinf          :       0.00       0.00          0          0          0          0          0          0          0          0
  multaggr         :       0.00       0.00          0          0          0          0          0          0          0          0
  nodereopt        :       0.00       0.00          0          0          0          0          0          0          0          0
  pscost           :       0.00       0.00          0          0          0          0          0          0          0          0
  random           :       0.00       0.00          0          0          0          0          0          0          0          0
  relpscost        :      27.82       0.00       3124          0          0          1       2808          0       7468       3666
  vanillafullstrong:       0.00       0.00          0          0          0          0          0          0          0          0
Primal Heuristics  :   ExecTime  SetupTime      Calls      Found       Best
  LP solutions     :       0.00          -          -          0          0
  relax solutions  :       0.00          -          -          0          0
  pseudo solutions :       0.00          -          -          0          0
  strong branching :       0.02          -          -          1          1
  actconsdiving    :       0.00       0.00          0          0          0
  adaptivediving   :       0.05       0.00          4          0          0
  alns             :       0.25       0.00          5          0          0
  bound            :       0.00       0.00          0          0          0
  clique           :       0.03       0.00          1          0          0
  coefdiving       :       0.00       0.00          0          0          0
  completesol      :       0.00       0.00          0          0          0
  conflictdiving   :       0.04       0.00          2          0          0
  crossover        :       0.15       0.00          3          1          0
  dins             :       0.00       0.00          0          0          0
  distributiondivin:       0.16       0.00          2          0          0
  dps              :       0.00       0.00          0          0          0
  dualval          :       0.00       0.00          0          0          0
  farkasdiving     :       0.67       0.00          1          0          0
  feaspump         :       0.11       0.00          1          0          0
  fixandinfer      :       0.00       0.00          0          0          0
  fracdiving       :       0.01       0.00          2          0          0
  gins             :       0.01       0.00          0          0          0
  guideddiving     :       0.02       0.00          2          0          0
  indicator        :       0.00       0.00          0          0          0
  intdiving        :       0.00       0.00          0          0          0
  intshifting      :       0.00       0.00          0          0          0
  linesearchdiving :       0.00       0.00          2          0          0
  localbranching   :       0.00       0.00          0          0          0
  locks            :       0.01       0.00          1          0          0
  lpface           :       1.10       0.00          1          0          0
  mpec             :       0.00       0.00          0          0          0
  multistart       :       0.00       0.00          0          0          0
  mutation         :       0.00       0.00          0          0          0
  nlpdiving        :       0.00       0.00          0          0          0
  objpscostdiving  :       0.07       0.00          2          1          0
  octane           :       0.00       0.00          0          0          0
  ofins            :       0.00       0.00          0          0          0
  oneopt           :       0.00       0.00          2          0          0
  padm             :       0.00       0.00          0          0          0
  proximity        :       0.00       0.00          0          0          0
  pscostdiving     :       0.03       0.00          2          1          1
  randrounding     :       0.08       0.00        311          0          0
  rens             :       0.03       0.00          1          0          0
  reoptsols        :       0.00       0.00          0          0          0
  repair           :       0.00       0.00          0          0          0
  rins             :       0.32       0.00          7          0          0
  rootsoldiving    :       0.08       0.00          2          0          0
  rounding         :       0.27       0.00        821          0          0
  shiftandpropagate:       0.01       0.00          1          0          0
  shifting         :       0.21       0.00        328          0          0
  simplerounding   :       0.00       0.00          0          0          0
  subnlp           :       0.00       0.00          0          0          0
  trivial          :       0.00       0.00          2          0          0
  trivialnegation  :       0.00       0.00          0          0          0
  trustregion      :       0.00       0.00          0          0          0
  trysol           :       0.00       0.00          0          0          0
  twoopt           :       0.00       0.00          0          0          0
  undercover       :       0.00       0.00          0          0          0
  vbounds          :       0.02       0.00          1          0          0
  veclendiving     :       0.02       0.00          2          0          0
  zeroobj          :       0.00       0.00          0          0          0
  zirounding       :       0.05       0.00       1000          0          0
  other solutions  :          -          -          -          0          -
LP                 :       Time      Calls Iterations  Iter/call   Iter/sec  Time-0-It Calls-0-It    ItLimit
  primal LP        :       1.60        332          0       0.00       0.00       1.60        332
  dual LP          :      23.66       8721      41057       7.69    1735.51       2.24       3382
  lex dual LP      :       0.00          0          0       0.00          -
  barrier LP       :       0.00          0          0       0.00          -       0.00          0
  resolve instable :       0.00          0          0       0.00          -
  diving/probing LP:       3.29        360       2466       6.85     749.06
  strong branching :      12.22       3503      38355      10.95    3139.20          -          -        411
    (at root node) :          -         18        556      30.89          -
  conflict analysis:       5.97       2229      20495       9.19    3435.46
B&B Tree           :
  number of runs   :          1
  nodes            :       3652 (1833 internal, 1819 leaves)
  feasible leaves  :          0
  infeas. leaves   :        317
  objective leaves :       1502
  nodes (total)    :       3652 (1833 internal, 1819 leaves)
  nodes left       :          0
  max depth        :         43
  max depth (total):         43
  backtracks       :        640 (17.5%)
  early backtracks :          0 (0.0%)
  nodes exc. ref.  :          0 (0.0%)
  delayed cutoffs  :         10
  repropagations   :       1391 (1876 domain reductions, 8 cutoffs)
  avg switch length:       5.04
  switching time   :       2.75
Root Node          :
  First LP value   : +2.78000000000000e+02
  First LP Iters   :         37 (1648.25 Iter/sec)
  First LP Time    :       0.02
  Final Dual Bound : +3.54714285714286e+02
  Final Root Iters :        925
  Root LP Estimate : +3.68510654881857e+02
Solution           :
  Solutions found  :          4 (2 improvements)
  First Solution   : +4.66000000000000e+02   (in run 1, after 6 nodes, 4.01 seconds, depth 27, found by <pscostdiving>)
  Gap First Sol.   :      31.37 %
  Gap Last Sol.    :       6.56 %
  Primal Bound     : +3.78000000000000e+02   (in run 1, after 9 nodes, 4.33 seconds, depth 5, found by <relaxation>)
  Dual Bound       : +3.78000000000000e+02
  Gap              :       0.00 %
Integrals          :      Total       Avg%
  primal-dual      :     649.53       8.41
  primal-ref       :          -          - (not evaluated)
  dual-ref         :          -          - (not evaluated)
written solution information to file <results/final_miplib_symretope_if_extended_generating_set_cpx_v802__settings_final_nosym_norestarts__0__neos-1109824.mps.gz.sol>
@04 1686649228
